0 0 0
0 1 38
0 2 35
0 3 72
0 4 18
0 5 32
0 6 76
0 7 194
0 8 51
0 9 11
1 1 0
1 2 6
1 3 65
1 4 182
1 5 42
1 6 170
1 7 76
1 8 15
1 9 32
2 2 0
2 3 64
2 4 68
2 5 60
2 6 48
2 7 7
2 8 162
2 9 186
3 3 0
3 4 198
3 5 48
3 6 77
3 7 59
3 8 63
3 9 3
4 4 0
4 5 32
4 6 26
4 7 166
4 8 76
4 9 10
5 5 0
5 6 44
5 7 48
5 8 8
5 9 67
6 6 0
6 7 78
6 8 58
6 9 10
7 7 0
7 8 15
7 9 57
8 8 0
8 9 5
9 9 0
